; benchmark generated from python API
(set-info :status unknown)
(declare-fun x_month () Int)
(declare-fun x_day () Int)
(declare-fun x_year () Int)
(declare-fun y_month () Int)
(declare-fun y_day () Int)
(declare-fun y_year () Int)
(assert
 (>= x_month 1))
(assert
 (<= x_month 12))
(assert
 (>= x_day 1))
(assert
 (<= x_day 31))
(assert
 (let (($x183 (<= x_day 28)))
 (let (($x97 (<= x_day 29)))
 (let (($x94 (= (mod x_year 400) 0)))
 (let (($x124 (= (mod x_year 4) 0)))
 (let (($x182 (ite (or (and $x124 (and (distinct (mod x_year 100) 0) true)) $x94) $x97 $x183)))
 (let (($x44 (= x_month 2)))
 (ite $x44 $x182 true))))))))
(assert
 (let (($x162 (<= x_day 30)))
 (let (($x168 (or (= x_month 4) (= x_month 6) (= x_month 9) (= x_month 11))))
 (ite $x168 $x162 true))))
(assert
 (>= y_month 1))
(assert
 (<= y_month 12))
(assert
 (>= y_day 1))
(assert
 (<= y_day 31))
(assert
 (let (($x133 (<= y_day 28)))
 (let (($x134 (<= y_day 29)))
 (let (($x140 (= (mod y_year 400) 0)))
 (let (($x144 (= (mod y_year 4) 0)))
 (let (($x135 (ite (or (and $x144 (and (distinct (mod y_year 100) 0) true)) $x140) $x134 $x133)))
 (let (($x143 (= y_month 2)))
 (ite $x143 $x135 true))))))))
(assert
 (let (($x169 (<= y_day 30)))
 (let (($x164 (or (= y_month 4) (= y_month 6) (= y_month 9) (= y_month 11))))
 (ite $x164 $x169 true))))
(assert
 (let (($x50 (= x_day 31)))
 (let (($x90 (= x_month 1)))
 (let (($x107 (= x_year 2020)))
 (and $x107 $x90 $x50)))))
(assert
 (let (($x103 (= y_day 31)))
 (let (($x102 (= y_month 1)))
 (let (($x101 (= y_year 2019)))
 (and $x101 $x102 $x103)))))
(assert
 (let ((?x187 (+ (mod (- (+ x_month (+ (* 0 12) 1)) 1) 12) 1)))
 (let ((?x201 (ite (or (= ?x187 4) (= ?x187 6) (= ?x187 9) (= ?x187 11)) 30 31)))
 (let ((?x114 (+ 0 (div (- (+ x_month (+ (* 0 12) 1)) 1) 12))))
 (let ((?x188 (+ x_year ?x114)))
 (let (($x197 (or (and (= (mod ?x188 4) 0) (and (distinct (mod ?x188 100) 0) true)) (= (mod ?x188 400) 0))))
 (let ((?x211 (ite (= ?x187 2) (ite $x197 29 28) ?x201)))
 (let ((?x204 (ite (< x_day 1) 1 (ite (> x_day ?x211) ?x211 x_day))))
 (let ((?x292 (ite (< ?x204 1) 1 (ite (> ?x204 ?x211) ?x211 ?x204))))
 (let ((?x253 (ite (= 2 ?x187) (ite $x197 31 31) (ite (= 1 ?x187) (ite $x197 0 0) 0))))
 (let ((?x243 (ite (= 4 ?x187) (ite $x197 91 90) (ite (= 3 ?x187) (ite $x197 60 59) ?x253))))
 (let ((?x238 (ite (= 6 ?x187) (ite $x197 152 151) (ite (= 5 ?x187) (ite $x197 121 120) ?x243))))
 (let ((?x293 (ite (= 8 ?x187) (ite $x197 213 212) (ite (= 7 ?x187) (ite $x197 182 181) ?x238))))
 (let ((?x277 (ite (= 10 ?x187) (ite $x197 274 273) (ite (= 9 ?x187) (ite $x197 244 243) ?x293))))
 (let ((?x262 (ite (= 12 ?x187) (ite $x197 335 334) (ite (= 11 ?x187) (ite $x197 305 304) ?x277))))
 (let ((?x218 (- (+ (* 365 (- ?x188 1)) (div (- ?x188 1) 4)) (div (- ?x188 1) 100))))
 (let ((?x223 (- (+ (+ (+ ?x218 (div (- ?x188 1) 400)) ?x262) (- ?x292 1)) 730179)))
 (let ((?x258 (+ (+ ?x223 0) 730179)))
 (let ((?x270 (mod ?x258 146097)))
 (let ((?x273 (div ?x270 36524)))
 (let ((?x279 (ite (<= 4 ?x273) 3 ?x273)))
 (let ((?x285 (- ?x270 (* ?x279 36524))))
 (let ((?x291 (mod ?x285 1461)))
 (let ((?x294 (div ?x291 365)))
 (let ((?x296 (ite (<= 4 ?x294) 3 ?x294)))
 (let ((?x71 (+ (+ (* (div ?x258 146097) 400) (* ?x279 100)) (* (div ?x285 1461) 4))))
 (let ((?x39 (+ (+ ?x71 ?x296) 1)))
 (let (($x51 (or (and (= (mod ?x39 4) 0) (and (distinct (mod ?x39 100) 0) true)) (= (mod ?x39 400) 0))))
 (let ((?x63 (- ?x291 (* ?x296 365))))
 (let ((?x53 (ite $x51 31 31)))
 (let (($x305 (>= ?x63 ?x53)))
 (let ((?x343 (ite $x305 (+ (- ?x63 ?x53) 1) (+ (- ?x63 (ite $x51 0 0)) 1))))
 (let ((?x33 (ite $x51 60 59)))
 (let (($x311 (>= ?x63 ?x33)))
 (let ((?x31 (ite $x51 91 90)))
 (let (($x313 (>= ?x63 ?x31)))
 (let ((?x12 (ite $x313 (+ (- ?x63 ?x31) 1) (ite $x311 (+ (- ?x63 ?x33) 1) ?x343))))
 (let ((?x30 (ite $x51 121 120)))
 (let (($x315 (>= ?x63 ?x30)))
 (let ((?x11 (ite $x51 152 151)))
 (let (($x317 (>= ?x63 ?x11)))
 (let ((?x297 (ite $x317 (+ (- ?x63 ?x11) 1) (ite $x315 (+ (- ?x63 ?x30) 1) ?x12))))
 (let ((?x301 (ite $x51 182 181)))
 (let (($x319 (>= ?x63 ?x301)))
 (let ((?x302 (ite $x51 213 212)))
 (let (($x321 (>= ?x63 ?x302)))
 (let ((?x54 (ite $x321 (+ (- ?x63 ?x302) 1) (ite $x319 (+ (- ?x63 ?x301) 1) ?x297))))
 (let ((?x303 (ite $x51 244 243)))
 (let (($x323 (>= ?x63 ?x303)))
 (let ((?x304 (ite $x51 274 273)))
 (let (($x325 (>= ?x63 ?x304)))
 (let ((?x340 (ite $x325 (+ (- ?x63 ?x304) 1) (ite $x323 (+ (- ?x63 ?x303) 1) ?x54))))
 (let ((?x310 (ite $x51 305 304)))
 (let (($x327 (>= ?x63 ?x310)))
 (let ((?x298 (ite $x51 335 334)))
 (let (($x331 (>= ?x63 ?x298)))
 (let ((?x59 (ite $x331 (+ (- ?x63 ?x298) 1) (ite $x327 (+ (- ?x63 ?x310) 1) ?x340))))
 (let (($x80 (= 0 0)))
 (let ((?x316 (ite $x315 5 (ite $x313 4 (ite $x311 3 (ite $x305 2 1))))))
 (let ((?x324 (ite $x323 9 (ite $x321 8 (ite $x319 7 (ite $x317 6 ?x316))))))
 (let (($x105 (= (ite $x80 ?x187 (ite $x331 12 (ite $x327 11 (ite $x325 10 ?x324)))) 2)))
 (and (= (ite $x80 ?x188 ?x39) 2020) $x105 (= (ite $x80 ?x292 ?x59) 29)))))))))))))))))))))))))))))))))))))))))))))))))))))))))))))))
(assert
 (let ((?x403 (+ (mod (- (+ y_month (+ (* 0 12) 1)) 1) 12) 1)))
(let ((?x420 (ite (or (= ?x403 4) (= ?x403 6) (= ?x403 9) (= ?x403 11)) 30 31)))
(let ((?x402 (+ 0 (div (- (+ y_month (+ (* 0 12) 1)) 1) 12))))
(let ((?x404 (+ y_year ?x402)))
(let (($x413 (or (and (= (mod ?x404 4) 0) (and (distinct (mod ?x404 100) 0) true)) (= (mod ?x404 400) 0))))
(let ((?x421 (ite (= ?x403 2) (ite $x413 29 28) ?x420)))
(let ((?x425 (ite (< y_day 1) 1 (ite (> y_day ?x421) ?x421 y_day))))
(let ((?x429 (ite (< ?x425 1) 1 (ite (> ?x425 ?x421) ?x421 ?x425))))
(let ((?x443 (ite (= 2 ?x403) (ite $x413 31 31) (ite (= 1 ?x403) (ite $x413 0 0) 0))))
(let ((?x449 (ite (= 4 ?x403) (ite $x413 91 90) (ite (= 3 ?x403) (ite $x413 60 59) ?x443))))
(let ((?x455 (ite (= 6 ?x403) (ite $x413 152 151) (ite (= 5 ?x403) (ite $x413 121 120) ?x449))))
(let ((?x461 (ite (= 8 ?x403) (ite $x413 213 212) (ite (= 7 ?x403) (ite $x413 182 181) ?x455))))
(let ((?x467 (ite (= 10 ?x403) (ite $x413 274 273) (ite (= 9 ?x403) (ite $x413 244 243) ?x461))))
(let ((?x473 (ite (= 12 ?x403) (ite $x413 335 334) (ite (= 11 ?x403) (ite $x413 305 304) ?x467))))
(let ((?x435 (- (+ (* 365 (- ?x404 1)) (div (- ?x404 1) 4)) (div (- ?x404 1) 100))))
(let ((?x477 (- (+ (+ (+ ?x435 (div (- ?x404 1) 400)) ?x473) (- ?x429 1)) 730179)))
(let ((?x479 (+ (+ ?x477 0) 730179)))
(let ((?x481 (mod ?x479 146097)))
(let ((?x482 (div ?x481 36524)))
(let ((?x484 (ite (<= 4 ?x482) 3 ?x482)))
(let ((?x486 (- ?x481 (* ?x484 36524))))
(let ((?x488 (mod ?x486 1461)))
(let ((?x489 (div ?x488 365)))
(let ((?x491 (ite (<= 4 ?x489) 3 ?x489)))
(let ((?x498 (+ (+ (* (div ?x479 146097) 400) (* ?x484 100)) (* (div ?x486 1461) 4))))
(let ((?x500 (+ (+ ?x498 ?x491) 1)))
(let (($x508 (or (and (= (mod ?x500 4) 0) (and (distinct (mod ?x500 100) 0) true)) (= (mod ?x500 400) 0))))
(let ((?x493 (- ?x488 (* ?x491 365))))
(let ((?x510 (ite $x508 31 31)))
(let (($x521 (>= ?x493 ?x510)))
(let ((?x547 (ite $x521 (+ (- ?x493 ?x510) 1) (+ (- ?x493 (ite $x508 0 0)) 1))))
(let ((?x511 (ite $x508 60 59)))
(let (($x523 (>= ?x493 ?x511)))
(let ((?x512 (ite $x508 91 90)))
(let (($x525 (>= ?x493 ?x512)))
(let ((?x553 (ite $x525 (+ (- ?x493 ?x512) 1) (ite $x523 (+ (- ?x493 ?x511) 1) ?x547))))
(let ((?x513 (ite $x508 121 120)))
(let (($x527 (>= ?x493 ?x513)))
(let ((?x514 (ite $x508 152 151)))
(let (($x529 (>= ?x493 ?x514)))
(let ((?x559 (ite $x529 (+ (- ?x493 ?x514) 1) (ite $x527 (+ (- ?x493 ?x513) 1) ?x553))))
(let ((?x515 (ite $x508 182 181)))
(let (($x531 (>= ?x493 ?x515)))
(let ((?x516 (ite $x508 213 212)))
(let (($x533 (>= ?x493 ?x516)))
(let ((?x565 (ite $x533 (+ (- ?x493 ?x516) 1) (ite $x531 (+ (- ?x493 ?x515) 1) ?x559))))
(let ((?x517 (ite $x508 244 243)))
(let (($x535 (>= ?x493 ?x517)))
(let ((?x518 (ite $x508 274 273)))
(let (($x537 (>= ?x493 ?x518)))
(let ((?x571 (ite $x537 (+ (- ?x493 ?x518) 1) (ite $x535 (+ (- ?x493 ?x517) 1) ?x565))))
(let ((?x519 (ite $x508 305 304)))
(let (($x539 (>= ?x493 ?x519)))
(let ((?x520 (ite $x508 335 334)))
(let (($x541 (>= ?x493 ?x520)))
(let ((?x577 (ite $x541 (+ (- ?x493 ?x520) 1) (ite $x539 (+ (- ?x493 ?x519) 1) ?x571))))
(let (($x80 (= 0 0)))
(let ((?x528 (ite $x527 5 (ite $x525 4 (ite $x523 3 (ite $x521 2 1))))))
(let ((?x536 (ite $x535 9 (ite $x533 8 (ite $x531 7 (ite $x529 6 ?x528))))))
(let (($x396 (= (ite $x80 ?x403 (ite $x541 12 (ite $x539 11 (ite $x537 10 ?x536)))) 2)))
(and (= (ite $x80 ?x404 ?x500) 2019) $x396 (= (ite $x80 ?x429 ?x577) 28)))))))))))))))))))))))))))))))))))))))))))))))))))))))))))))))
(check-sat)
